; SWAP1 PUSH cw_2 SWAP3 SWAP2 SWAP1 => PUSH cw_2 SWAP3 SWAP2
(set-option :produce-proofs true)
; 
(set-info :status unknown)
(declare-fun storage_t ((_ BitVec 256) (_ BitVec 256) (_ BitVec 256) (_ BitVec 256) Int (_ BitVec 256)) (_ BitVec 256))
(declare-fun w_2 () (_ BitVec 256))
(declare-fun storage_s ((_ BitVec 256) (_ BitVec 256) (_ BitVec 256) (_ BitVec 256) Int (_ BitVec 256)) (_ BitVec 256))
(declare-fun exc_halt_t (Int) Bool)
(declare-fun exc_halt_s (Int) Bool)
(declare-fun stack_t ((_ BitVec 256) (_ BitVec 256) (_ BitVec 256) (_ BitVec 256) Int (_ BitVec 6)) (_ BitVec 256))
(declare-fun stack_s ((_ BitVec 256) (_ BitVec 256) (_ BitVec 256) (_ BitVec 256) Int (_ BitVec 6)) (_ BitVec 256))
(declare-fun sc_t (Int) (_ BitVec 6))
(declare-fun sc_s (Int) (_ BitVec 6))
(declare-fun used_gas_t ((_ BitVec 256) (_ BitVec 256) (_ BitVec 256) (_ BitVec 256) Int) Int)
(declare-fun used_gas_s ((_ BitVec 256) (_ BitVec 256) (_ BitVec 256) (_ BitVec 256) Int) Int)
(assert
 (exists ((x_0 (_ BitVec 256)) (x_1 (_ BitVec 256)) (x_2 (_ BitVec 256)) )(let (($x7209 (forall ((w (_ BitVec 256)) )(let ((?x9455 (storage_t x_0 x_1 x_2 w_2 3 w)))
 (let ((?x5985 (storage_s x_0 x_1 x_2 w_2 5 w)))
 (= ?x5985 ?x9455))))
 ))
 (let (($x8164 (exc_halt_t 3)))
 (let (($x1862 (exc_halt_s 5)))
 (let (($x2620 (= $x1862 $x8164)))
 (let (($x3871 (forall ((n (_ BitVec 6)) )(let ((?x1392 (stack_t x_0 x_1 x_2 w_2 3 n)))
 (let ((?x1820 (stack_s x_0 x_1 x_2 w_2 5 n)))
 (let (($x3385 (= ?x1820 ?x1392)))
 (let ((?x7878 (sc_t 3)))
 (let (($x3008 (bvsle ?x7878 n)))
 (or $x3008 $x3385)))))))
 ))
 (let ((?x7878 (sc_t 3)))
 (let ((?x4319 (sc_s 5)))
 (let (($x3671 (= ?x4319 ?x7878)))
 (let ((?x89 (used_gas_t x_0 x_1 x_2 w_2 0)))
 (let ((?x9255 (used_gas_s x_0 x_1 x_2 w_2 0)))
 (let (($x7359 (= ?x9255 ?x89)))
 (let (($x6590 (forall ((w (_ BitVec 256)) )(let ((?x2050 (storage_t x_0 x_1 x_2 w_2 0 w)))
 (let ((?x9713 (storage_s x_0 x_1 x_2 w_2 0 w)))
 (= ?x9713 ?x2050))))
 ))
 (let (($x56 (exc_halt_t 0)))
 (let (($x57 (exc_halt_s 0)))
 (let (($x58 (= $x57 $x56)))
 (let (($x4662 (forall ((n (_ BitVec 6)) )(let ((?x11861 (stack_t x_0 x_1 x_2 w_2 0 n)))
 (let ((?x4384 (stack_s x_0 x_1 x_2 w_2 0 n)))
 (let (($x11784 (= ?x4384 ?x11861)))
 (let ((?x63 (sc_t 0)))
 (let (($x6655 (bvsle ?x63 n)))
 (or $x6655 $x11784)))))))
 ))
 (let ((?x63 (sc_t 0)))
 (let ((?x72 (sc_s 0)))
 (let (($x73 (= ?x72 ?x63)))
 (let (($x5972 (= $x8164 (or (exc_halt_t 2) (not (bvsle (_ bv0 6) (bvadd (_ bv61 6) (sc_t 2))))))))
 (let (($x1282 (forall ((w (_ BitVec 256)) )(let ((?x3577 (storage_t x_0 x_1 x_2 w_2 2 w)))
 (let ((?x9455 (storage_t x_0 x_1 x_2 w_2 3 w)))
 (= ?x9455 ?x3577))))
 ))
 (let (($x10390 (forall ((n (_ BitVec 6)) )(let ((?x4896 (sc_t 2)))
 (let ((?x1535 (bvadd (_ bv61 6) ?x4896)))
 (let (($x10901 (bvsle ?x1535 n)))
 (let ((?x10412 (stack_t x_0 x_1 x_2 w_2 2 n)))
 (let ((?x1392 (stack_t x_0 x_1 x_2 w_2 3 n)))
 (or (= ?x1392 ?x10412) $x10901)))))))
 ))
 (let ((?x4896 (sc_t 2)))
 (let (($x7307 (= ?x7878 ?x4896)))
 (let (($x11963 (= (used_gas_t x_0 x_1 x_2 w_2 3) (+ 3 (used_gas_t x_0 x_1 x_2 w_2 2)))))
 (let ((?x4054 (bvadd (_ bv62 6) ?x4896)))
 (let ((?x2565 (stack_t x_0 x_1 x_2 w_2 2 ?x4054)))
 (let ((?x7366 (bvadd (_ bv63 6) ?x4896)))
 (let ((?x6407 (stack_t x_0 x_1 x_2 w_2 2 ?x7366)))
 (let ((?x1535 (bvadd (_ bv61 6) ?x4896)))
 (let ((?x1395 (stack_t x_0 x_1 x_2 w_2 2 ?x1535)))
 (let (($x9258 (exc_halt_t 2)))
 (let (($x7193 (= $x9258 (or (exc_halt_t 1) (not (bvsle (_ bv0 6) (bvadd (_ bv60 6) (sc_t 1))))))))
 (let (($x7392 (forall ((w (_ BitVec 256)) )(let ((?x3841 (storage_t x_0 x_1 x_2 w_2 1 w)))
 (let ((?x3577 (storage_t x_0 x_1 x_2 w_2 2 w)))
 (= ?x3577 ?x3841))))
 ))
 (let (($x11525 (forall ((n (_ BitVec 6)) )(let ((?x1473 (sc_t 1)))
 (let ((?x7104 (bvadd (_ bv60 6) ?x1473)))
 (let (($x3993 (bvsle ?x7104 n)))
 (let ((?x4916 (stack_t x_0 x_1 x_2 w_2 1 n)))
 (let ((?x10412 (stack_t x_0 x_1 x_2 w_2 2 n)))
 (or (= ?x10412 ?x4916) $x3993)))))))
 ))
 (let ((?x1473 (sc_t 1)))
 (let (($x2880 (= ?x4896 ?x1473)))
 (let ((?x11456 (used_gas_t x_0 x_1 x_2 w_2 2)))
 (let (($x842 (= (stack_t x_0 x_1 x_2 w_2 2 (bvadd (_ bv60 6) ?x4896)) (stack_t x_0 x_1 x_2 w_2 1 (bvadd (_ bv63 6) ?x1473)))))
 (let (($x7526 (exc_halt_t 1)))
 (let (($x1231 (= $x7526 (or $x56 (not (= ((_ extract 6 6) (bvadd (_ bv1 7) (concat (_ bv0 1) ?x63))) (_ bv0 1)))))))
 (let (($x3186 (forall ((w (_ BitVec 256)) )(let ((?x2050 (storage_t x_0 x_1 x_2 w_2 0 w)))
 (let ((?x3841 (storage_t x_0 x_1 x_2 w_2 1 w)))
 (= ?x3841 ?x2050))))
 ))
 (let (($x6685 (forall ((n (_ BitVec 6)) )(let ((?x11861 (stack_t x_0 x_1 x_2 w_2 0 n)))
 (let ((?x4916 (stack_t x_0 x_1 x_2 w_2 1 n)))
 (let ((?x63 (sc_t 0)))
 (let (($x6655 (bvsle ?x63 n)))
 (or $x6655 (= ?x4916 ?x11861)))))))
 ))
 (let (($x5345 (= ?x1473 (bvadd (_ bv1 6) ?x63))))
 (let (($x269 (= $x1862 (or (exc_halt_s 4) (not (bvsle (_ bv0 6) (bvadd (_ bv62 6) (sc_s 4))))))))
 (let (($x3099 (forall ((w (_ BitVec 256)) )(let ((?x5572 (storage_s x_0 x_1 x_2 w_2 4 w)))
 (let ((?x5985 (storage_s x_0 x_1 x_2 w_2 5 w)))
 (= ?x5985 ?x5572))))
 ))
 (let (($x1078 (forall ((n (_ BitVec 6)) )(let ((?x9433 (sc_s 4)))
 (let ((?x11088 (bvadd (_ bv62 6) ?x9433)))
 (let (($x3294 (bvsle ?x11088 n)))
 (let ((?x3618 (stack_s x_0 x_1 x_2 w_2 4 n)))
 (let ((?x1820 (stack_s x_0 x_1 x_2 w_2 5 n)))
 (or (= ?x1820 ?x3618) $x3294)))))))
 ))
 (let ((?x9433 (sc_s 4)))
 (let (($x2805 (= ?x4319 ?x9433)))
 (let (($x300 (= (used_gas_s x_0 x_1 x_2 w_2 5) (+ 3 (used_gas_s x_0 x_1 x_2 w_2 4)))))
 (let ((?x10009 (bvadd (_ bv63 6) ?x9433)))
 (let ((?x6342 (stack_s x_0 x_1 x_2 w_2 4 ?x10009)))
 (let ((?x11088 (bvadd (_ bv62 6) ?x9433)))
 (let ((?x3244 (stack_s x_0 x_1 x_2 w_2 4 ?x11088)))
 (let (($x9175 (exc_halt_s 4)))
 (let (($x6776 (= $x9175 (or (exc_halt_s 3) (not (bvsle (_ bv0 6) (bvadd (_ bv61 6) (sc_s 3))))))))
 (let (($x3441 (forall ((w (_ BitVec 256)) )(let ((?x5452 (storage_s x_0 x_1 x_2 w_2 3 w)))
 (let ((?x5572 (storage_s x_0 x_1 x_2 w_2 4 w)))
 (= ?x5572 ?x5452))))
 ))
 (let (($x9318 (forall ((n (_ BitVec 6)) )(let ((?x9490 (stack_s x_0 x_1 x_2 w_2 3 n)))
 (let ((?x3618 (stack_s x_0 x_1 x_2 w_2 4 n)))
 (let ((?x3851 (sc_s 3)))
 (let ((?x9017 (bvadd (_ bv61 6) ?x3851)))
 (let (($x11541 (bvsle ?x9017 n)))
 (or $x11541 (= ?x3618 ?x9490))))))))
 ))
 (let ((?x3851 (sc_s 3)))
 (let (($x5601 (= ?x9433 ?x3851)))
 (let ((?x4259 (used_gas_s x_0 x_1 x_2 w_2 4)))
 (let ((?x5352 (bvadd (_ bv63 6) ?x3851)))
 (let ((?x4368 (stack_s x_0 x_1 x_2 w_2 3 ?x5352)))
 (let (($x8103 (exc_halt_s 3)))
 (let (($x9179 (= $x8103 (or (exc_halt_s 2) (not (bvsle (_ bv0 6) (bvadd (_ bv60 6) (sc_s 2))))))))
 (let (($x2036 (forall ((w (_ BitVec 256)) )(let ((?x6073 (storage_s x_0 x_1 x_2 w_2 2 w)))
 (let ((?x5452 (storage_s x_0 x_1 x_2 w_2 3 w)))
 (= ?x5452 ?x6073))))
 ))
 (let (($x6932 (forall ((n (_ BitVec 6)) )(let ((?x9101 (stack_s x_0 x_1 x_2 w_2 2 n)))
 (let ((?x9490 (stack_s x_0 x_1 x_2 w_2 3 n)))
 (let ((?x2272 (sc_s 2)))
 (let ((?x6409 (bvadd (_ bv60 6) ?x2272)))
 (let (($x1093 (bvsle ?x6409 n)))
 (or $x1093 (= ?x9490 ?x9101))))))))
 ))
 (let ((?x2272 (sc_s 2)))
 (let (($x197 (= ?x3851 ?x2272)))
 (let ((?x6003 (used_gas_s x_0 x_1 x_2 w_2 3)))
 (let ((?x8586 (bvadd (_ bv62 6) ?x3851)))
 (let ((?x4359 (stack_s x_0 x_1 x_2 w_2 3 ?x8586)))
 (let ((?x9017 (bvadd (_ bv61 6) ?x3851)))
 (let ((?x4071 (stack_s x_0 x_1 x_2 w_2 3 ?x9017)))
 (let (($x11945 (= (stack_s x_0 x_1 x_2 w_2 3 (bvadd (_ bv60 6) ?x3851)) (stack_s x_0 x_1 x_2 w_2 2 (bvadd (_ bv63 6) ?x2272)))))
 (let (($x11866 (not (= ((_ extract 6 6) (bvadd (_ bv1 7) (concat (_ bv0 1) (sc_s 1)))) (_ bv0 1)))))
 (let (($x8780 (exc_halt_s 1)))
 (let (($x10052 (exc_halt_s 2)))
 (let (($x11638 (= $x10052 (or $x8780 $x11866))))
 (let (($x4282 (forall ((w (_ BitVec 256)) )(let ((?x10373 (storage_s x_0 x_1 x_2 w_2 1 w)))
 (let ((?x6073 (storage_s x_0 x_1 x_2 w_2 2 w)))
 (= ?x6073 ?x10373))))
 ))
 (let (($x9070 (forall ((n (_ BitVec 6)) )(let ((?x154 (sc_s 1)))
 (let (($x7990 (bvsle ?x154 n)))
 (let ((?x10128 (stack_s x_0 x_1 x_2 w_2 1 n)))
 (let ((?x9101 (stack_s x_0 x_1 x_2 w_2 2 n)))
 (or (= ?x9101 ?x10128) $x7990))))))
 ))
 (let (($x11836 (= ?x2272 (bvadd (_ bv1 6) (sc_s 1)))))
 (let ((?x6854 (used_gas_s x_0 x_1 x_2 w_2 2)))
 (let (($x2941 (= $x8780 (or $x57 (not (bvsle (_ bv0 6) (bvadd (_ bv62 6) ?x72)))))))
 (let (($x7617 (forall ((w (_ BitVec 256)) )(let ((?x9713 (storage_s x_0 x_1 x_2 w_2 0 w)))
 (let ((?x10373 (storage_s x_0 x_1 x_2 w_2 1 w)))
 (= ?x10373 ?x9713))))
 ))
 (let (($x7692 (forall ((n (_ BitVec 6)) )(let ((?x72 (sc_s 0)))
 (let ((?x6880 (bvadd (_ bv62 6) ?x72)))
 (let (($x10297 (bvsle ?x6880 n)))
 (let ((?x4384 (stack_s x_0 x_1 x_2 w_2 0 n)))
 (let ((?x10128 (stack_s x_0 x_1 x_2 w_2 1 n)))
 (or (= ?x10128 ?x4384) $x10297)))))))
 ))
 (let ((?x154 (sc_s 1)))
 (let (($x1465 (= ?x154 ?x72)))
 (let (($x5124 (= (stack_s x_0 x_1 x_2 w_2 1 (bvadd (_ bv62 6) ?x154)) (stack_s x_0 x_1 x_2 w_2 0 (bvadd (_ bv63 6) ?x72)))))
 (let (($x3502 (= (stack_s x_0 x_1 x_2 w_2 1 (bvadd (_ bv63 6) ?x154)) (stack_s x_0 x_1 x_2 w_2 0 (bvadd (_ bv62 6) ?x72)))))
 (let (($x243 (forall ((w (_ BitVec 256)) )(let ((?x9713 (storage_s x_0 x_1 x_2 w_2 0 w)))
 (= ?x9713 (_ bv0 256))))
 ))
 (let (($x5882 (= ?x9255 0)))
 (let (($x7433 (not $x57)))
 (let (($x707 (= (stack_s x_0 x_1 x_2 w_2 0 (_ bv2 6)) x_2)))
 (let (($x11150 (= (stack_s x_0 x_1 x_2 w_2 0 (_ bv1 6)) x_1)))
 (let (($x6575 (= (stack_s x_0 x_1 x_2 w_2 0 (_ bv0 6)) x_0)))
 (let (($x9108 (= ?x72 (_ bv3 6))))
 (and $x9108 $x6575 $x11150 $x707 $x7433 $x5882 $x243 $x3502 $x5124 (= (used_gas_s x_0 x_1 x_2 w_2 1) (+ 3 ?x9255)) $x1465 $x7692 $x7617 $x2941 (= (stack_s x_0 x_1 x_2 w_2 2 ?x154) w_2) (= ?x6854 (+ 3 (used_gas_s x_0 x_1 x_2 w_2 1))) $x11836 $x9070 $x4282 $x11638 (= ?x4368 (stack_s x_0 x_1 x_2 w_2 2 (bvadd (_ bv60 6) ?x2272))) $x11945 (= ?x4071 (stack_s x_0 x_1 x_2 w_2 2 (bvadd (_ bv61 6) ?x2272))) (= ?x4359 (stack_s x_0 x_1 x_2 w_2 2 (bvadd (_ bv62 6) ?x2272))) (= ?x6003 (+ 3 ?x6854)) $x197 $x6932 $x2036 $x9179 (= ?x6342 ?x4071) (= (stack_s x_0 x_1 x_2 w_2 4 (bvadd (_ bv61 6) ?x9433)) ?x4368) (= ?x3244 ?x4359) (= ?x4259 (+ 3 ?x6003)) $x5601 $x9318 $x3441 $x6776 (= (stack_s x_0 x_1 x_2 w_2 5 (bvadd (_ bv63 6) ?x4319)) ?x3244) (= (stack_s x_0 x_1 x_2 w_2 5 (bvadd (_ bv62 6) ?x4319)) ?x6342) $x300 $x2805 $x1078 $x3099 $x269 (= (stack_t x_0 x_1 x_2 w_2 1 ?x63) w_2) (= (used_gas_t x_0 x_1 x_2 w_2 1) (+ 3 ?x89)) $x5345 $x6685 $x3186 $x1231 (= ?x6407 (stack_t x_0 x_1 x_2 w_2 1 (bvadd (_ bv60 6) ?x1473))) $x842 (= ?x1395 (stack_t x_0 x_1 x_2 w_2 1 (bvadd (_ bv61 6) ?x1473))) (= ?x2565 (stack_t x_0 x_1 x_2 w_2 1 (bvadd (_ bv62 6) ?x1473))) (= ?x11456 (+ 3 (used_gas_t x_0 x_1 x_2 w_2 1))) $x2880 $x11525 $x7392 $x7193 (= (stack_t x_0 x_1 x_2 w_2 3 (bvadd (_ bv63 6) ?x7878)) ?x1395) (= (stack_t x_0 x_1 x_2 w_2 3 (bvadd (_ bv61 6) ?x7878)) ?x6407) (= (stack_t x_0 x_1 x_2 w_2 3 (bvadd (_ bv62 6) ?x7878)) ?x2565) $x11963 $x7307 $x10390 $x1282 $x5972 $x73 $x4662 $x58 $x6590 $x7359 (not (and $x3671 $x3871 $x2620 $x7209)))))))))))))))))))))))))))))))))))))))))))))))))))))))))))))))))))))))))))))))))))))))))))))))))))))
 )
(check-sat)
(get-proof)
